Problem:    formulacao
Rows:       2
Columns:    60 (60 integer, 60 binary)
Non-zeros:  120
Status:     INTEGER OPTIMAL
Objective:  cost = 10360 (MAXimum)

   No.   Row name        Activity     Lower bound   Upper bound
------ ------------    ------------- ------------- -------------
     1 cost                    10360                             
     2 capacity                10000                       10000 

   No. Column name       Activity     Lower bound   Upper bound
------ ------------    ------------- ------------- -------------
     1 x[0]         *              0             0             1 
     2 x[1]         *              1             0             1 
     3 x[2]         *              1             0             1 
     4 x[3]         *              0             0             1 
     5 x[4]         *              1             0             1 
     6 x[5]         *              1             0             1 
     7 x[6]         *              0             0             1 
     8 x[7]         *              1             0             1 
     9 x[8]         *              1             0             1 
    10 x[9]         *              0             0             1 
    11 x[10]        *              1             0             1 
    12 x[11]        *              1             0             1 
    13 x[12]        *              0             0             1 
    14 x[13]        *              1             0             1 
    15 x[14]        *              1             0             1 
    16 x[15]        *              0             0             1 
    17 x[16]        *              1             0             1 
    18 x[17]        *              1             0             1 
    19 x[18]        *              0             0             1 
    20 x[19]        *              1             0             1 
    21 x[20]        *              1             0             1 
    22 x[21]        *              0             0             1 
    23 x[22]        *              1             0             1 
    24 x[23]        *              1             0             1 
    25 x[24]        *              0             0             1 
    26 x[25]        *              1             0             1 
    27 x[26]        *              1             0             1 
    28 x[27]        *              0             0             1 
    29 x[28]        *              1             0             1 
    30 x[29]        *              1             0             1 
    31 x[30]        *              0             0             1 
    32 x[31]        *              1             0             1 
    33 x[32]        *              1             0             1 
    34 x[33]        *              0             0             1 
    35 x[34]        *              1             0             1 
    36 x[35]        *              0             0             1 
    37 x[36]        *              0             0             1 
    38 x[37]        *              1             0             1 
    39 x[38]        *              0             0             1 
    40 x[39]        *              0             0             1 
    41 x[40]        *              1             0             1 
    42 x[41]        *              1             0             1 
    43 x[42]        *              0             0             1 
    44 x[43]        *              1             0             1 
    45 x[44]        *              0             0             1 
    46 x[45]        *              0             0             1 
    47 x[46]        *              1             0             1 
    48 x[47]        *              1             0             1 
    49 x[48]        *              0             0             1 
    50 x[49]        *              1             0             1 
    51 x[50]        *              1             0             1 
    52 x[51]        *              0             0             1 
    53 x[52]        *              1             0             1 
    54 x[53]        *              1             0             1 
    55 x[54]        *              0             0             1 
    56 x[55]        *              1             0             1 
    57 x[56]        *              1             0             1 
    58 x[57]        *              0             0             1 
    59 x[58]        *              1             0             1 
    60 x[59]        *              0             0             1 

Integer feasibility conditions:

KKT.PE: max.abs.err = 0.00e+00 on row 0
        max.rel.err = 0.00e+00 on row 0
        High quality

KKT.PB: max.abs.err = 0.00e+00 on row 0
        max.rel.err = 0.00e+00 on row 0
        High quality

End of output
